outputs/case_286.model.txt
other_necessary_measures = False
revoke_statutory_meeting_resolution = False
restrict_business_or_fund_usage = False
net_worth_ratio = 5
net_worth = 1000000
capital_level_3_measures_executed_flag = False
order_provision_reserve_or_capital_increase = False
remove_director_supervisor = False
capital_level_4_measures_executed_flag = False
order_capital_increase = False
suspend_subsidiary_business = False
authority_action_taken = True
order_close_branch_or_department = False
order_dispose_subsidiary_shares = False
order_stop_insurance_products = False
capital_adequacy_ratio = 100
order_remove_manager_staff = False
penalty_types = False
suspend_partial_business = False
order_provision_reserve = False
revoke_license = False
revoke_all_or_partial_business_license = False
violation_flag = True
order_prohibit_asset_disposal = False
improvement_plan_executed = False
restrict_investment = False
improvement_plan_submitted = False
capital_level_2_measures_executed = False
capital_level = 0
penalties_applicable = True
capital_level_4_measures_executed = False
violation_occurred = True
penalty = False
capital_level_3_measures_executed = False